\Problem name: fri26.lp

Minimize
 obj: 83 x_1 + 93 x_2 + 129 x_3 + 133 x_4 + 139 x_5 + 151 x_6 + 169 x_7
 + 135 x_8 + 114 x_9 + 110 x_10 + 98 x_11 + 99 x_12 + 95 x_13 + 81 x_14
 + 152 x_15 + 159 x_16 + 181 x_17 + 172 x_18 + 185 x_19 + 147 x_20 + 157 x_21
 + 185 x_22 + 220 x_23 + 127 x_24 + 181 x_25 + 40 x_26 + 53 x_27 + 62 x_28
 + 64 x_29 + 91 x_30 + 116 x_31 + 93 x_32 + 84 x_33 + 95 x_34 + 98 x_35
 + 89 x_36 + 68 x_37 + 67 x_38 + 127 x_39 + 156 x_40 + 175 x_41 + 152 x_42
 + 165 x_43 + 160 x_44 + 180 x_45 + 223 x_46 + 268 x_47 + 179 x_48 + 197 x_49
 + 42 x_50 + 42 x_51 + 49 x_52 + 59 x_53 + 81 x_54 + 54 x_55 + 44 x_56
 + 58 x_57 + 64 x_58 + 54 x_59 + 31 x_60 + 36 x_61 + 86 x_62 + 117 x_63
 + 135 x_64 + 112 x_65 + 125 x_66 + 124 x_67 + 147 x_68 + 193 x_69 + 241 x_70
 + 157 x_71 + 161 x_72 + 11 x_73 + 11 x_74 + 46 x_75 + 72 x_76 + 65 x_77
 + 70 x_78 + 88 x_79 + 100 x_80 + 89 x_81 + 66 x_82 + 76 x_83 + 102 x_84
 + 142 x_85 + 156 x_86 + 127 x_87 + 139 x_88 + 155 x_89 + 180 x_90 + 228 x_91
 + 278 x_92 + 197 x_93 + 190 x_94 + 9 x_95 + 35 x_96 + 61 x_97 + 55 x_98
 + 62 x_99 + 82 x_100 + 95 x_101 + 84 x_102 + 62 x_103 + 74 x_104 + 93 x_105
 + 133 x_106 + 146 x_107 + 117 x_108 + 128 x_109 + 148 x_110 + 173 x_111
 + 222 x_112 + 272 x_113 + 194 x_114 + 182 x_115 + 39 x_116 + 65 x_117
 + 63 x_118 + 71 x_119 + 90 x_120 + 103 x_121 + 92 x_122 + 71 x_123 + 82 x_124
 + 100 x_125 + 141 x_126 + 153 x_127 + 124 x_128 + 135 x_129 + 156 x_130
 + 181 x_131 + 230 x_132 + 280 x_133 + 202 x_134 + 190 x_135 + 26 x_136
 + 34 x_137 + 52 x_138 + 71 x_139 + 88 x_140 + 77 x_141 + 63 x_142 + 78 x_143
 + 66 x_144 + 110 x_145 + 119 x_146 + 88 x_147 + 98 x_148 + 130 x_149
 + 156 x_150 + 206 x_151 + 257 x_152 + 188 x_153 + 160 x_154 + 37 x_155
 + 59 x_156 + 75 x_157 + 92 x_158 + 83 x_159 + 76 x_160 + 91 x_161 + 54 x_162
 + 98 x_163 + 103 x_164 + 70 x_165 + 78 x_166 + 122 x_167 + 148 x_168
 + 198 x_169 + 250 x_170 + 188 x_171 + 148 x_172 + 22 x_173 + 39 x_174
 + 56 x_175 + 47 x_176 + 40 x_177 + 55 x_178 + 37 x_179 + 78 x_180 + 91 x_181
 + 62 x_182 + 74 x_183 + 96 x_184 + 122 x_185 + 172 x_186 + 223 x_187
 + 155 x_188 + 128 x_189 + 20 x_190 + 36 x_191 + 26 x_192 + 20 x_193
 + 34 x_194 + 43 x_195 + 74 x_196 + 91 x_197 + 68 x_198 + 82 x_199 + 86 x_200
 + 111 x_201 + 160 x_202 + 210 x_203 + 136 x_204 + 121 x_205 + 18 x_206
 + 11 x_207 + 27 x_208 + 32 x_209 + 42 x_210 + 61 x_211 + 80 x_212 + 64 x_213
 + 77 x_214 + 68 x_215 + 92 x_216 + 140 x_217 + 190 x_218 + 116 x_219
 + 103 x_220 + 11 x_221 + 34 x_222 + 31 x_223 + 56 x_224 + 63 x_225 + 85 x_226
 + 75 x_227 + 87 x_228 + 62 x_229 + 83 x_230 + 129 x_231 + 178 x_232
 + 100 x_233 + 99 x_234 + 23 x_235 + 24 x_236 + 53 x_237 + 68 x_238 + 89 x_239
 + 74 x_240 + 87 x_241 + 71 x_242 + 93 x_243 + 140 x_244 + 189 x_245
 + 111 x_246 + 107 x_247 + 15 x_248 + 62 x_249 + 87 x_250 + 106 x_251
 + 87 x_252 + 100 x_253 + 93 x_254 + 116 x_255 + 163 x_256 + 212 x_257
 + 132 x_258 + 130 x_259 + 73 x_260 + 92 x_261 + 112 x_262 + 96 x_263
 + 109 x_264 + 93 x_265 + 113 x_266 + 158 x_267 + 205 x_268 + 122 x_269
 + 130 x_270 + 44 x_271 + 54 x_272 + 26 x_273 + 39 x_274 + 68 x_275 + 94 x_276
 + 144 x_277 + 196 x_278 + 139 x_279 + 95 x_280 + 22 x_281 + 34 x_282
 + 38 x_283 + 30 x_284 + 53 x_285 + 102 x_286 + 154 x_287 + 109 x_288
 + 51 x_289 + 33 x_290 + 29 x_291 + 46 x_292 + 64 x_293 + 107 x_294
 + 157 x_295 + 125 x_296 + 51 x_297 + 13 x_298 + 63 x_299 + 87 x_300
 + 135 x_301 + 186 x_302 + 141 x_303 + 81 x_304 + 68 x_305 + 90 x_306
 + 136 x_307 + 186 x_308 + 148 x_309 + 79 x_310 + 26 x_311 + 77 x_312
 + 128 x_313 + 80 x_314 + 37 x_315 + 50 x_316 + 102 x_317 + 65 x_318
 + 27 x_319 + 51 x_320 + 64 x_321 + 58 x_322 + 93 x_323 + 107 x_324 + 90 x_325
Subject To
 r_1:  x_1 + x_2 + x_3 + x_4 + x_5 + x_6 + x_7 + x_8 + x_9 + x_10 + x_11 + x_12
       + x_13 + x_14 + x_15 + x_16 + x_17 + x_18 + x_19 + x_20 + x_21 + x_22
       + x_23 + x_24 + x_25  = 2
 r_2:  x_1 + x_26 + x_27 + x_28 + x_29 + x_30 + x_31 + x_32 + x_33 + x_34
       + x_35 + x_36 + x_37 + x_38 + x_39 + x_40 + x_41 + x_42 + x_43 + x_44
       + x_45 + x_46 + x_47 + x_48 + x_49  = 2
 r_3:  x_2 + x_26 + x_50 + x_51 + x_52 + x_53 + x_54 + x_55 + x_56 + x_57
       + x_58 + x_59 + x_60 + x_61 + x_62 + x_63 + x_64 + x_65 + x_66 + x_67
       + x_68 + x_69 + x_70 + x_71 + x_72  = 2
 r_4:  x_3 + x_27 + x_50 + x_73 + x_74 + x_75 + x_76 + x_77 + x_78 + x_79
       + x_80 + x_81 + x_82 + x_83 + x_84 + x_85 + x_86 + x_87 + x_88 + x_89
       + x_90 + x_91 + x_92 + x_93 + x_94  = 2
 r_5:  x_4 + x_28 + x_51 + x_73 + x_95 + x_96 + x_97 + x_98 + x_99 + x_100
       + x_101 + x_102 + x_103 + x_104 + x_105 + x_106 + x_107 + x_108 + x_109
       + x_110 + x_111 + x_112 + x_113 + x_114 + x_115  = 2
 r_6:  x_5 + x_29 + x_52 + x_74 + x_95 + x_116 + x_117 + x_118 + x_119 + x_120
       + x_121 + x_122 + x_123 + x_124 + x_125 + x_126 + x_127 + x_128 + x_129
       + x_130 + x_131 + x_132 + x_133 + x_134 + x_135  = 2
 r_7:  x_6 + x_30 + x_53 + x_75 + x_96 + x_116 + x_136 + x_137 + x_138 + x_139
       + x_140 + x_141 + x_142 + x_143 + x_144 + x_145 + x_146 + x_147 + x_148
       + x_149 + x_150 + x_151 + x_152 + x_153 + x_154  = 2
 r_8:  x_7 + x_31 + x_54 + x_76 + x_97 + x_117 + x_136 + x_155 + x_156 + x_157
       + x_158 + x_159 + x_160 + x_161 + x_162 + x_163 + x_164 + x_165 + x_166
       + x_167 + x_168 + x_169 + x_170 + x_171 + x_172  = 2
 r_9:  x_8 + x_32 + x_55 + x_77 + x_98 + x_118 + x_137 + x_155 + x_173 + x_174
       + x_175 + x_176 + x_177 + x_178 + x_179 + x_180 + x_181 + x_182 + x_183
       + x_184 + x_185 + x_186 + x_187 + x_188 + x_189  = 2
 r_10: x_9 + x_33 + x_56 + x_78 + x_99 + x_119 + x_138 + x_156 + x_173 + x_190
       + x_191 + x_192 + x_193 + x_194 + x_195 + x_196 + x_197 + x_198 + x_199
       + x_200 + x_201 + x_202 + x_203 + x_204 + x_205  = 2
 r_11: x_10 + x_34 + x_57 + x_79 + x_100 + x_120 + x_139 + x_157 + x_174
       + x_190 + x_206 + x_207 + x_208 + x_209 + x_210 + x_211 + x_212 + x_213
       + x_214 + x_215 + x_216 + x_217 + x_218 + x_219 + x_220  = 2
 r_12: x_11 + x_35 + x_58 + x_80 + x_101 + x_121 + x_140 + x_158 + x_175
       + x_191 + x_206 + x_221 + x_222 + x_223 + x_224 + x_225 + x_226 + x_227
       + x_228 + x_229 + x_230 + x_231 + x_232 + x_233 + x_234  = 2
 r_13: x_12 + x_36 + x_59 + x_81 + x_102 + x_122 + x_141 + x_159 + x_176
       + x_192 + x_207 + x_221 + x_235 + x_236 + x_237 + x_238 + x_239 + x_240
       + x_241 + x_242 + x_243 + x_244 + x_245 + x_246 + x_247  = 2
 r_14: x_13 + x_37 + x_60 + x_82 + x_103 + x_123 + x_142 + x_160 + x_177
       + x_193 + x_208 + x_222 + x_235 + x_248 + x_249 + x_250 + x_251 + x_252
       + x_253 + x_254 + x_255 + x_256 + x_257 + x_258 + x_259  = 2
 r_15: x_14 + x_38 + x_61 + x_83 + x_104 + x_124 + x_143 + x_161 + x_178
       + x_194 + x_209 + x_223 + x_236 + x_248 + x_260 + x_261 + x_262 + x_263
       + x_264 + x_265 + x_266 + x_267 + x_268 + x_269 + x_270  = 2
 r_16: x_15 + x_39 + x_62 + x_84 + x_105 + x_125 + x_144 + x_162 + x_179
       + x_195 + x_210 + x_224 + x_237 + x_249 + x_260 + x_271 + x_272 + x_273
       + x_274 + x_275 + x_276 + x_277 + x_278 + x_279 + x_280  = 2
 r_17: x_16 + x_40 + x_63 + x_85 + x_106 + x_126 + x_145 + x_163 + x_180
       + x_196 + x_211 + x_225 + x_238 + x_250 + x_261 + x_271 + x_281 + x_282
       + x_283 + x_284 + x_285 + x_286 + x_287 + x_288 + x_289  = 2
 r_18: x_17 + x_41 + x_64 + x_86 + x_107 + x_127 + x_146 + x_164 + x_181
       + x_197 + x_212 + x_226 + x_239 + x_251 + x_262 + x_272 + x_281 + x_290
       + x_291 + x_292 + x_293 + x_294 + x_295 + x_296 + x_297  = 2
 r_19: x_18 + x_42 + x_65 + x_87 + x_108 + x_128 + x_147 + x_165 + x_182
       + x_198 + x_213 + x_227 + x_240 + x_252 + x_263 + x_273 + x_282 + x_290
       + x_298 + x_299 + x_300 + x_301 + x_302 + x_303 + x_304  = 2
 r_20: x_19 + x_43 + x_66 + x_88 + x_109 + x_129 + x_148 + x_166 + x_183
       + x_199 + x_214 + x_228 + x_241 + x_253 + x_264 + x_274 + x_283 + x_291
       + x_298 + x_305 + x_306 + x_307 + x_308 + x_309 + x_310  = 2
 r_21: x_20 + x_44 + x_67 + x_89 + x_110 + x_130 + x_149 + x_167 + x_184
       + x_200 + x_215 + x_229 + x_242 + x_254 + x_265 + x_275 + x_284 + x_292
       + x_299 + x_305 + x_311 + x_312 + x_313 + x_314 + x_315  = 2
 r_22: x_21 + x_45 + x_68 + x_90 + x_111 + x_131 + x_150 + x_168 + x_185
       + x_201 + x_216 + x_230 + x_243 + x_255 + x_266 + x_276 + x_285 + x_293
       + x_300 + x_306 + x_311 + x_316 + x_317 + x_318 + x_319  = 2
 r_23: x_22 + x_46 + x_69 + x_91 + x_112 + x_132 + x_151 + x_169 + x_186
       + x_202 + x_217 + x_231 + x_244 + x_256 + x_267 + x_277 + x_286 + x_294
       + x_301 + x_307 + x_312 + x_316 + x_320 + x_321 + x_322  = 2
 r_24: x_23 + x_47 + x_70 + x_92 + x_113 + x_133 + x_152 + x_170 + x_187
       + x_203 + x_218 + x_232 + x_245 + x_257 + x_268 + x_278 + x_287 + x_295
       + x_302 + x_308 + x_313 + x_317 + x_320 + x_323 + x_324  = 2
 r_25: x_24 + x_48 + x_71 + x_93 + x_114 + x_134 + x_153 + x_171 + x_188
       + x_204 + x_219 + x_233 + x_246 + x_258 + x_269 + x_279 + x_288 + x_296
       + x_303 + x_309 + x_314 + x_318 + x_321 + x_323 + x_325  = 2
 r_26: x_25 + x_49 + x_72 + x_94 + x_115 + x_135 + x_154 + x_172 + x_189
       + x_205 + x_220 + x_234 + x_247 + x_259 + x_270 + x_280 + x_289 + x_297
       + x_304 + x_310 + x_315 + x_319 + x_322 + x_324 + x_325  = 2
Bounds
 0 <= x_1 <= 1
 0 <= x_2 <= 1
 0 <= x_3 <= 1
 0 <= x_4 <= 1
 0 <= x_5 <= 1
 0 <= x_6 <= 1
 0 <= x_7 <= 1
 0 <= x_8 <= 1
 0 <= x_9 <= 1
 0 <= x_10 <= 1
 0 <= x_11 <= 1
 0 <= x_12 <= 1
 0 <= x_13 <= 1
 0 <= x_14 <= 1
 0 <= x_15 <= 1
 0 <= x_16 <= 1
 0 <= x_17 <= 1
 0 <= x_18 <= 1
 0 <= x_19 <= 1
 0 <= x_20 <= 1
 0 <= x_21 <= 1
 0 <= x_22 <= 1
 0 <= x_23 <= 1
 0 <= x_24 <= 1
 0 <= x_25 <= 1
 0 <= x_26 <= 1
 0 <= x_27 <= 1
 0 <= x_28 <= 1
 0 <= x_29 <= 1
 0 <= x_30 <= 1
 0 <= x_31 <= 1
 0 <= x_32 <= 1
 0 <= x_33 <= 1
 0 <= x_34 <= 1
 0 <= x_35 <= 1
 0 <= x_36 <= 1
 0 <= x_37 <= 1
 0 <= x_38 <= 1
 0 <= x_39 <= 1
 0 <= x_40 <= 1
 0 <= x_41 <= 1
 0 <= x_42 <= 1
 0 <= x_43 <= 1
 0 <= x_44 <= 1
 0 <= x_45 <= 1
 0 <= x_46 <= 1
 0 <= x_47 <= 1
 0 <= x_48 <= 1
 0 <= x_49 <= 1
 0 <= x_50 <= 1
 0 <= x_51 <= 1
 0 <= x_52 <= 1
 0 <= x_53 <= 1
 0 <= x_54 <= 1
 0 <= x_55 <= 1
 0 <= x_56 <= 1
 0 <= x_57 <= 1
 0 <= x_58 <= 1
 0 <= x_59 <= 1
 0 <= x_60 <= 1
 0 <= x_61 <= 1
 0 <= x_62 <= 1
 0 <= x_63 <= 1
 0 <= x_64 <= 1
 0 <= x_65 <= 1
 0 <= x_66 <= 1
 0 <= x_67 <= 1
 0 <= x_68 <= 1
 0 <= x_69 <= 1
 0 <= x_70 <= 1
 0 <= x_71 <= 1
 0 <= x_72 <= 1
 0 <= x_73 <= 1
 0 <= x_74 <= 1
 0 <= x_75 <= 1
 0 <= x_76 <= 1
 0 <= x_77 <= 1
 0 <= x_78 <= 1
 0 <= x_79 <= 1
 0 <= x_80 <= 1
 0 <= x_81 <= 1
 0 <= x_82 <= 1
 0 <= x_83 <= 1
 0 <= x_84 <= 1
 0 <= x_85 <= 1
 0 <= x_86 <= 1
 0 <= x_87 <= 1
 0 <= x_88 <= 1
 0 <= x_89 <= 1
 0 <= x_90 <= 1
 0 <= x_91 <= 1
 0 <= x_92 <= 1
 0 <= x_93 <= 1
 0 <= x_94 <= 1
 0 <= x_95 <= 1
 0 <= x_96 <= 1
 0 <= x_97 <= 1
 0 <= x_98 <= 1
 0 <= x_99 <= 1
 0 <= x_100 <= 1
 0 <= x_101 <= 1
 0 <= x_102 <= 1
 0 <= x_103 <= 1
 0 <= x_104 <= 1
 0 <= x_105 <= 1
 0 <= x_106 <= 1
 0 <= x_107 <= 1
 0 <= x_108 <= 1
 0 <= x_109 <= 1
 0 <= x_110 <= 1
 0 <= x_111 <= 1
 0 <= x_112 <= 1
 0 <= x_113 <= 1
 0 <= x_114 <= 1
 0 <= x_115 <= 1
 0 <= x_116 <= 1
 0 <= x_117 <= 1
 0 <= x_118 <= 1
 0 <= x_119 <= 1
 0 <= x_120 <= 1
 0 <= x_121 <= 1
 0 <= x_122 <= 1
 0 <= x_123 <= 1
 0 <= x_124 <= 1
 0 <= x_125 <= 1
 0 <= x_126 <= 1
 0 <= x_127 <= 1
 0 <= x_128 <= 1
 0 <= x_129 <= 1
 0 <= x_130 <= 1
 0 <= x_131 <= 1
 0 <= x_132 <= 1
 0 <= x_133 <= 1
 0 <= x_134 <= 1
 0 <= x_135 <= 1
 0 <= x_136 <= 1
 0 <= x_137 <= 1
 0 <= x_138 <= 1
 0 <= x_139 <= 1
 0 <= x_140 <= 1
 0 <= x_141 <= 1
 0 <= x_142 <= 1
 0 <= x_143 <= 1
 0 <= x_144 <= 1
 0 <= x_145 <= 1
 0 <= x_146 <= 1
 0 <= x_147 <= 1
 0 <= x_148 <= 1
 0 <= x_149 <= 1
 0 <= x_150 <= 1
 0 <= x_151 <= 1
 0 <= x_152 <= 1
 0 <= x_153 <= 1
 0 <= x_154 <= 1
 0 <= x_155 <= 1
 0 <= x_156 <= 1
 0 <= x_157 <= 1
 0 <= x_158 <= 1
 0 <= x_159 <= 1
 0 <= x_160 <= 1
 0 <= x_161 <= 1
 0 <= x_162 <= 1
 0 <= x_163 <= 1
 0 <= x_164 <= 1
 0 <= x_165 <= 1
 0 <= x_166 <= 1
 0 <= x_167 <= 1
 0 <= x_168 <= 1
 0 <= x_169 <= 1
 0 <= x_170 <= 1
 0 <= x_171 <= 1
 0 <= x_172 <= 1
 0 <= x_173 <= 1
 0 <= x_174 <= 1
 0 <= x_175 <= 1
 0 <= x_176 <= 1
 0 <= x_177 <= 1
 0 <= x_178 <= 1
 0 <= x_179 <= 1
 0 <= x_180 <= 1
 0 <= x_181 <= 1
 0 <= x_182 <= 1
 0 <= x_183 <= 1
 0 <= x_184 <= 1
 0 <= x_185 <= 1
 0 <= x_186 <= 1
 0 <= x_187 <= 1
 0 <= x_188 <= 1
 0 <= x_189 <= 1
 0 <= x_190 <= 1
 0 <= x_191 <= 1
 0 <= x_192 <= 1
 0 <= x_193 <= 1
 0 <= x_194 <= 1
 0 <= x_195 <= 1
 0 <= x_196 <= 1
 0 <= x_197 <= 1
 0 <= x_198 <= 1
 0 <= x_199 <= 1
 0 <= x_200 <= 1
 0 <= x_201 <= 1
 0 <= x_202 <= 1
 0 <= x_203 <= 1
 0 <= x_204 <= 1
 0 <= x_205 <= 1
 0 <= x_206 <= 1
 0 <= x_207 <= 1
 0 <= x_208 <= 1
 0 <= x_209 <= 1
 0 <= x_210 <= 1
 0 <= x_211 <= 1
 0 <= x_212 <= 1
 0 <= x_213 <= 1
 0 <= x_214 <= 1
 0 <= x_215 <= 1
 0 <= x_216 <= 1
 0 <= x_217 <= 1
 0 <= x_218 <= 1
 0 <= x_219 <= 1
 0 <= x_220 <= 1
 0 <= x_221 <= 1
 0 <= x_222 <= 1
 0 <= x_223 <= 1
 0 <= x_224 <= 1
 0 <= x_225 <= 1
 0 <= x_226 <= 1
 0 <= x_227 <= 1
 0 <= x_228 <= 1
 0 <= x_229 <= 1
 0 <= x_230 <= 1
 0 <= x_231 <= 1
 0 <= x_232 <= 1
 0 <= x_233 <= 1
 0 <= x_234 <= 1
 0 <= x_235 <= 1
 0 <= x_236 <= 1
 0 <= x_237 <= 1
 0 <= x_238 <= 1
 0 <= x_239 <= 1
 0 <= x_240 <= 1
 0 <= x_241 <= 1
 0 <= x_242 <= 1
 0 <= x_243 <= 1
 0 <= x_244 <= 1
 0 <= x_245 <= 1
 0 <= x_246 <= 1
 0 <= x_247 <= 1
 0 <= x_248 <= 1
 0 <= x_249 <= 1
 0 <= x_250 <= 1
 0 <= x_251 <= 1
 0 <= x_252 <= 1
 0 <= x_253 <= 1
 0 <= x_254 <= 1
 0 <= x_255 <= 1
 0 <= x_256 <= 1
 0 <= x_257 <= 1
 0 <= x_258 <= 1
 0 <= x_259 <= 1
 0 <= x_260 <= 1
 0 <= x_261 <= 1
 0 <= x_262 <= 1
 0 <= x_263 <= 1
 0 <= x_264 <= 1
 0 <= x_265 <= 1
 0 <= x_266 <= 1
 0 <= x_267 <= 1
 0 <= x_268 <= 1
 0 <= x_269 <= 1
 0 <= x_270 <= 1
 0 <= x_271 <= 1
 0 <= x_272 <= 1
 0 <= x_273 <= 1
 0 <= x_274 <= 1
 0 <= x_275 <= 1
 0 <= x_276 <= 1
 0 <= x_277 <= 1
 0 <= x_278 <= 1
 0 <= x_279 <= 1
 0 <= x_280 <= 1
 0 <= x_281 <= 1
 0 <= x_282 <= 1
 0 <= x_283 <= 1
 0 <= x_284 <= 1
 0 <= x_285 <= 1
 0 <= x_286 <= 1
 0 <= x_287 <= 1
 0 <= x_288 <= 1
 0 <= x_289 <= 1
 0 <= x_290 <= 1
 0 <= x_291 <= 1
 0 <= x_292 <= 1
 0 <= x_293 <= 1
 0 <= x_294 <= 1
 0 <= x_295 <= 1
 0 <= x_296 <= 1
 0 <= x_297 <= 1
 0 <= x_298 <= 1
 0 <= x_299 <= 1
 0 <= x_300 <= 1
 0 <= x_301 <= 1
 0 <= x_302 <= 1
 0 <= x_303 <= 1
 0 <= x_304 <= 1
 0 <= x_305 <= 1
 0 <= x_306 <= 1
 0 <= x_307 <= 1
 0 <= x_308 <= 1
 0 <= x_309 <= 1
 0 <= x_310 <= 1
 0 <= x_311 <= 1
 0 <= x_312 <= 1
 0 <= x_313 <= 1
 0 <= x_314 <= 1
 0 <= x_315 <= 1
 0 <= x_316 <= 1
 0 <= x_317 <= 1
 0 <= x_318 <= 1
 0 <= x_319 <= 1
 0 <= x_320 <= 1
 0 <= x_321 <= 1
 0 <= x_322 <= 1
 0 <= x_323 <= 1
 0 <= x_324 <= 1
 0 <= x_325 <= 1
Binaries
 x_1  x_2  x_3  x_4  x_5  x_6  x_7  x_8  x_9  x_10  x_11  x_12  x_13  x_14 
 x_15  x_16  x_17  x_18  x_19  x_20  x_21  x_22  x_23  x_24  x_25  x_26  x_27 
 x_28  x_29  x_30  x_31  x_32  x_33  x_34  x_35  x_36  x_37  x_38  x_39  x_40 
 x_41  x_42  x_43  x_44  x_45  x_46  x_47  x_48  x_49  x_50  x_51  x_52  x_53 
 x_54  x_55  x_56  x_57  x_58  x_59  x_60  x_61  x_62  x_63  x_64  x_65  x_66 
 x_67  x_68  x_69  x_70  x_71  x_72  x_73  x_74  x_75  x_76  x_77  x_78  x_79 
 x_80  x_81  x_82  x_83  x_84  x_85  x_86  x_87  x_88  x_89  x_90  x_91  x_92 
 x_93  x_94  x_95  x_96  x_97  x_98  x_99  x_100  x_101  x_102  x_103  x_104 
 x_105  x_106  x_107  x_108  x_109  x_110  x_111  x_112  x_113  x_114  x_115 
 x_116  x_117  x_118  x_119  x_120  x_121  x_122  x_123  x_124  x_125  x_126 
 x_127  x_128  x_129  x_130  x_131  x_132  x_133  x_134  x_135  x_136  x_137 
 x_138  x_139  x_140  x_141  x_142  x_143  x_144  x_145  x_146  x_147  x_148 
 x_149  x_150  x_151  x_152  x_153  x_154  x_155  x_156  x_157  x_158  x_159 
 x_160  x_161  x_162  x_163  x_164  x_165  x_166  x_167  x_168  x_169  x_170 
 x_171  x_172  x_173  x_174  x_175  x_176  x_177  x_178  x_179  x_180  x_181 
 x_182  x_183  x_184  x_185  x_186  x_187  x_188  x_189  x_190  x_191  x_192 
 x_193  x_194  x_195  x_196  x_197  x_198  x_199  x_200  x_201  x_202  x_203 
 x_204  x_205  x_206  x_207  x_208  x_209  x_210  x_211  x_212  x_213  x_214 
 x_215  x_216  x_217  x_218  x_219  x_220  x_221  x_222  x_223  x_224  x_225 
 x_226  x_227  x_228  x_229  x_230  x_231  x_232  x_233  x_234  x_235  x_236 
 x_237  x_238  x_239  x_240  x_241  x_242  x_243  x_244  x_245  x_246  x_247 
 x_248  x_249  x_250  x_251  x_252  x_253  x_254  x_255  x_256  x_257  x_258 
 x_259  x_260  x_261  x_262  x_263  x_264  x_265  x_266  x_267  x_268  x_269 
 x_270  x_271  x_272  x_273  x_274  x_275  x_276  x_277  x_278  x_279  x_280 
 x_281  x_282  x_283  x_284  x_285  x_286  x_287  x_288  x_289  x_290  x_291 
 x_292  x_293  x_294  x_295  x_296  x_297  x_298  x_299  x_300  x_301  x_302 
 x_303  x_304  x_305  x_306  x_307  x_308  x_309  x_310  x_311  x_312  x_313 
 x_314  x_315  x_316  x_317  x_318  x_319  x_320  x_321  x_322  x_323  x_324 
 x_325 
End
